
Gurobi 8.1.1 (linux64, Python) logging started Mon 03 Feb 2020 02:47:47 PM EST

Academic license - for non-commercial use only

Gurobi 8.1.1 (linux64, Python) logging started Mon 03 Feb 2020 02:48:39 PM EST

Academic license - for non-commercial use only

Gurobi 8.1.1 (linux64, Python) logging started Mon 03 Feb 2020 02:49:55 PM EST

Academic license - for non-commercial use only

Gurobi 8.1.1 (linux64, Python) logging started Mon 03 Feb 2020 02:50:53 PM EST

Academic license - for non-commercial use only

Gurobi 8.1.1 (linux64, Python) logging started Mon 03 Feb 2020 02:51:59 PM EST

Academic license - for non-commercial use only

Gurobi 8.1.1 (linux64, Python) logging started Mon 03 Feb 2020 02:52:46 PM EST

Academic license - for non-commercial use only

Gurobi 8.1.1 (linux64, Python) logging started Mon 03 Feb 2020 02:53:26 PM EST

Academic license - for non-commercial use only

Gurobi 8.1.1 (linux64, Python) logging started Mon 03 Feb 2020 02:53:45 PM EST

Academic license - for non-commercial use only

Gurobi 8.1.1 (linux64, Python) logging started Mon 03 Feb 2020 02:54:07 PM EST

Academic license - for non-commercial use only

Gurobi 8.1.1 (linux64, Python) logging started Mon 03 Feb 2020 02:54:21 PM EST

Academic license - for non-commercial use only

Gurobi 8.1.1 (linux64, Python) logging started Mon Feb  3 14:55:58 2020

Academic license - for non-commercial use only

Gurobi 8.1.1 (linux64, Python) logging started Mon Feb  3 14:58:34 2020

Academic license - for non-commercial use only

Gurobi 8.1.1 (linux64, Python) logging started Mon Feb  3 17:25:20 2020

Academic license - for non-commercial use only

Gurobi 8.1.1 (linux64, Python) logging started Mon Feb  3 17:26:31 2020

Academic license - for non-commercial use only

Gurobi 8.1.1 (linux64, Python) logging started Mon Feb  3 17:27:33 2020

Academic license - for non-commercial use only

Gurobi 8.1.1 (linux64, Python) logging started Mon Feb  3 17:28:38 2020

Academic license - for non-commercial use only

Gurobi 8.1.1 (linux64, Python) logging started Mon Feb  3 17:29:32 2020

Academic license - for non-commercial use only

Gurobi 8.1.1 (linux64, Python) logging started Mon Feb  3 17:32:48 2020

Academic license - for non-commercial use only

Gurobi 8.1.1 (linux64, Python) logging started Mon Feb  3 17:35:24 2020

Academic license - for non-commercial use only

Gurobi 8.1.1 (linux64, Python) logging started Mon Feb  3 17:35:50 2020

Academic license - for non-commercial use only

Gurobi 8.1.1 (linux64, Python) logging started Mon Feb  3 17:36:48 2020

Academic license - for non-commercial use only

Gurobi 8.1.1 (linux64, Python) logging started Mon Feb  3 17:37:02 2020

Academic license - for non-commercial use only

Gurobi 8.1.1 (linux64, Python) logging started Mon Feb  3 17:37:53 2020

Academic license - for non-commercial use only

Gurobi 8.1.1 (linux64, Python) logging started Mon Feb  3 17:38:12 2020

Academic license - for non-commercial use only

Gurobi 8.1.1 (linux64, Python) logging started Mon Feb  3 17:38:30 2020

Academic license - for non-commercial use only

Gurobi 8.1.1 (linux64, Python) logging started Mon 03 Feb 2020 05:40:48 PM EST

Academic license - for non-commercial use only

Gurobi 8.1.1 (linux64, Python) logging started Mon 03 Feb 2020 05:41:16 PM EST

Academic license - for non-commercial use only

Gurobi 8.1.1 (linux64, Python) logging started Mon Feb  3 17:41:38 2020

Academic license - for non-commercial use only

Gurobi 8.1.1 (linux64, Python) logging started Mon Feb  3 17:42:31 2020

Academic license - for non-commercial use only

Gurobi 8.1.1 (linux64, Python) logging started Mon Feb  3 17:45:09 2020

Academic license - for non-commercial use only

Gurobi 8.1.1 (linux64, Python) logging started Mon Feb  3 17:48:12 2020

Academic license - for non-commercial use only

Gurobi 8.1.1 (linux64, Python) logging started Mon Feb  3 17:51:28 2020

Academic license - for non-commercial use only

Gurobi 8.1.1 (linux64, Python) logging started Mon Feb  3 17:53:44 2020

Academic license - for non-commercial use only

Gurobi 8.1.1 (linux64, Python) logging started Mon Feb  3 18:06:40 2020

Academic license - for non-commercial use only

Gurobi 8.1.1 (linux64, Python) logging started Mon Feb  3 18:08:34 2020

Academic license - for non-commercial use only

Gurobi 8.1.1 (linux64, Python) logging started Mon Feb  3 18:09:30 2020

Academic license - for non-commercial use only

Gurobi 8.1.1 (linux64, Python) logging started Mon Feb  3 18:11:45 2020

Academic license - for non-commercial use only

Gurobi 8.1.1 (linux64, Python) logging started Mon Feb  3 18:12:11 2020

Academic license - for non-commercial use only

Gurobi 8.1.1 (linux64, Python) logging started Mon Feb  3 18:12:59 2020

Academic license - for non-commercial use only

Gurobi 8.1.1 (linux64, Python) logging started Mon Feb  3 18:15:38 2020

Academic license - for non-commercial use only

Gurobi 8.1.1 (linux64, Python) logging started Mon Feb  3 18:15:54 2020

Academic license - for non-commercial use only

Gurobi 8.1.1 (linux64, Python) logging started Mon Feb  3 18:17:35 2020

Academic license - for non-commercial use only

Gurobi 8.1.1 (linux64, Python) logging started Mon Feb  3 18:34:27 2020

Academic license - for non-commercial use only

Gurobi 8.1.1 (linux64, Python) logging started Mon Feb  3 18:37:12 2020

Academic license - for non-commercial use only

Gurobi 8.1.1 (linux64, Python) logging started Mon Feb  3 18:40:54 2020

Academic license - for non-commercial use only

Gurobi 8.1.1 (linux64, Python) logging started Mon Feb  3 18:41:35 2020

Academic license - for non-commercial use only

Gurobi 8.1.1 (linux64, Python) logging started Mon Feb  3 18:42:02 2020

Academic license - for non-commercial use only

Gurobi 8.1.1 (linux64, Python) logging started Mon Feb  3 18:42:37 2020

Academic license - for non-commercial use only

Gurobi 8.1.1 (linux64, Python) logging started Mon Feb  3 18:43:11 2020

Academic license - for non-commercial use only

Gurobi 8.1.1 (linux64, Python) logging started Mon Feb  3 18:43:39 2020

Academic license - for non-commercial use only

Gurobi 8.1.1 (linux64, Python) logging started Mon Feb  3 18:44:28 2020

Academic license - for non-commercial use only

Gurobi 8.1.1 (linux64, Python) logging started Mon Feb  3 18:46:12 2020

Academic license - for non-commercial use only

Gurobi 8.1.1 (linux64, Python) logging started Mon Feb  3 18:47:02 2020

Academic license - for non-commercial use only

Gurobi 8.1.1 (linux64, Python) logging started Mon Feb  3 18:47:53 2020

Academic license - for non-commercial use only

Gurobi 8.1.1 (linux64, Python) logging started Mon Feb  3 18:48:54 2020

Academic license - for non-commercial use only

Gurobi 8.1.1 (linux64, Python) logging started Mon Feb  3 19:13:46 2020

Academic license - for non-commercial use only

Gurobi 8.1.1 (linux64, Python) logging started Mon Feb  3 23:30:41 2020

Academic license - for non-commercial use only

Gurobi 8.1.1 (linux64, Python) logging started Mon Feb  3 23:31:14 2020

Academic license - for non-commercial use only

Gurobi 8.1.1 (linux64, Python) logging started Mon Feb  3 23:32:27 2020

Academic license - for non-commercial use only

Gurobi 8.1.1 (linux64, Python) logging started Mon Feb  3 23:38:17 2020

Academic license - for non-commercial use only

Gurobi 8.1.1 (linux64, Python) logging started Mon Feb  3 23:39:22 2020

Academic license - for non-commercial use only

Gurobi 8.1.1 (linux64, Python) logging started Mon Feb  3 23:40:01 2020

Academic license - for non-commercial use only

Gurobi 8.1.1 (linux64, Python) logging started Mon Feb  3 23:41:22 2020

Academic license - for non-commercial use only

Gurobi 8.1.1 (linux64, Python) logging started Mon Feb  3 23:42:31 2020

Academic license - for non-commercial use only

Gurobi 8.1.1 (linux64, Python) logging started Mon Feb  3 23:43:35 2020

Academic license - for non-commercial use only

Gurobi 8.1.1 (linux64, Python) logging started Mon Feb  3 23:44:45 2020

Academic license - for non-commercial use only

Gurobi 8.1.1 (linux64, Python) logging started Mon Feb  3 23:46:05 2020

Academic license - for non-commercial use only

Gurobi 8.1.1 (linux64, Python) logging started Mon Feb  3 23:49:06 2020

Academic license - for non-commercial use only

Gurobi 8.1.1 (linux64, Python) logging started Mon Feb  3 23:53:05 2020

Academic license - for non-commercial use only

Gurobi 8.1.1 (linux64, Python) logging started Mon Feb  3 23:53:56 2020

Academic license - for non-commercial use only

Gurobi 8.1.1 (linux64, Python) logging started Tue Feb  4 00:09:09 2020

Academic license - for non-commercial use only

Gurobi 8.1.1 (linux64, Python) logging started Tue Feb  4 00:10:19 2020

Academic license - for non-commercial use only

Gurobi 8.1.1 (linux64, Python) logging started Tue Feb  4 00:10:28 2020

Academic license - for non-commercial use only

Gurobi 8.1.1 (linux64, Python) logging started Tue Feb  4 00:10:56 2020

Academic license - for non-commercial use only

Gurobi 8.1.1 (linux64, Python) logging started Tue Feb  4 00:13:42 2020

Academic license - for non-commercial use only

Gurobi 8.1.1 (linux64, Python) logging started Tue Feb  4 00:17:17 2020

Academic license - for non-commercial use only

Gurobi 8.1.1 (linux64, Python) logging started Tue Feb  4 00:19:00 2020

Academic license - for non-commercial use only

Gurobi 8.1.1 (linux64, Python) logging started Tue Feb  4 00:19:09 2020

Academic license - for non-commercial use only

Gurobi 8.1.1 (linux64, Python) logging started Tue Feb  4 00:20:13 2020

Academic license - for non-commercial use only

Gurobi 8.1.1 (linux64, Python) logging started Tue Feb  4 00:20:58 2020

Academic license - for non-commercial use only

Gurobi 8.1.1 (linux64, Python) logging started Tue Feb  4 00:21:10 2020

Academic license - for non-commercial use only
